01000001010111110001001111101000111101101001000000000010110011000010110011010110001000101111011010000100100111111101001010111101010010010111110100000111111101111111011100000011001101001010100110110110001101001001101110111100010111010001000101000111111001010111001101010011001111010000100010101110011101101001010100000110010010000011101001101010000010010001011000001101000010110011001111001010100000110111000111010101101111011100000100000011010011101101101001000001011001000011001111111100101110110010001101000001